313 3516
79 
7 12 16 21 24 27 31 32 44 45 52 56 87 109 111 122 124 135 147 148 153 154 159 165 173 180 186 189 190 193 195 196 199 201 206 212 214 221 225 227 237 238 241 248 254 265 283 294 302 
8 19 20 33 48 73 102 121 218 258 266 282 288 289 
11 15 18 22 71 90 93 95 101 108 117 126 160 162 179 191 209 211 213 215 217 240 269 272 280 291 
9 25 91 131 166 216 230 290 299 310 
13 17 23 42 47 62 75 76 85 89 98 99 105 110 119 120 129 137 138 141 144 145 151 155 157 168 176 192 202 226 229 235 236 243 253 262 263 264 267 284 286 287 
2 12 16 21 24 27 31 32 44 45 52 56 87 109 111 122 124 135 147 148 153 154 159 165 173 180 186 189 190 193 195 196 199 201 206 212 214 221 225 227 237 238 241 248 254 265 283 294 302 
3 19 20 33 48 73 102 121 218 258 266 282 288 289 
5 25 91 131 166 216 230 290 299 310 
15 22 35 88 93 126 160 161 211 215 222 280 291 308 
4 15 18 22 71 90 93 101 108 117 126 160 162 179 191 209 213 217 240 269 272 280 291 
2 7 16 21 24 27 31 32 44 45 52 56 87 109 111 122 124 135 147 148 153 154 159 165 173 180 186 189 190 193 195 196 199 201 206 212 214 221 225 227 237 238 241 248 254 265 283 294 302 
6 17 23 42 47 62 75 76 85 89 98 99 105 110 119 120 129 137 138 141 144 145 151 155 157 168 176 192 202 226 235 236 243 253 262 263 264 267 286 287 
36 38 53 58 63 77 96 103 123 164 174 177 197 200 207 210 242 247 252 271 301 
4 10 11 18 22 34 35 71 88 90 93 95 101 108 126 160 161 162 179 191 194 209 211 213 215 217 222 240 269 272 280 291 308 
2 7 12 21 24 27 31 32 44 45 52 56 87 109 111 122 124 135 147 148 153 154 159 165 173 180 186 189 190 193 195 196 199 201 206 212 214 221 225 227 237 238 241 248 254 265 283 294 302 
6 13 23 42 47 61 62 72 75 76 85 89 98 99 100 105 110 119 120 127 129 137 138 140 141 144 145 151 155 157 168 176 181 187 192 202 226 229 235 236 243 253 262 263 264 267 277 284 286 287 
4 11 15 22 34 71 90 93 95 101 108 117 126 152 160 162 179 191 209 213 217 240 269 272 275 279 280 291 308 
3 8 20 33 48 73 102 121 218 258 266 282 288 289 
3 8 19 33 48 73 102 121 218 258 266 282 288 289 
2 7 12 16 24 27 31 32 44 45 52 56 87 109 111 122 124 135 147 148 153 154 159 165 173 180 186 189 190 193 195 196 199 201 206 212 214 221 225 227 237 238 241 248 254 265 283 294 302 
4 10 11 15 18 35 71 88 90 93 95 101 108 117 126 152 160 161 162 179 191 194 209 211 213 215 217 240 269 272 280 291 
6 13 17 25 41 47 61 62 72 75 76 84 85 89 98 99 100 105 110 119 127 129 137 138 140 141 144 151 155 157 166 168 169 176 181 187 192 202 204 216 226 235 243 253 256 262 263 264 267 277 286 287 290 
2 7 12 16 21 27 31 32 44 45 52 56 87 109 111 122 124 135 147 148 153 154 159 165 173 180 186 189 190 193 195 196 199 201 206 212 214 221 225 227 237 238 241 248 254 265 283 294 302 
5 9 23 40 41 84 91 131 136 166 169 176 216 230 290 299 310 
43 
2 7 12 16 21 24 31 32 44 45 52 56 87 109 111 122 124 135 147 148 153 154 159 165 173 180 186 189 190 193 195 196 199 201 206 212 214 221 225 227 237 238 241 248 254 265 283 294 302 
152 
34 49 65 95 152 194 208 250 270 275 279 303 

2 7 12 16 21 24 27 32 44 45 52 56 87 109 111 122 124 135 147 148 153 154 159 165 173 180 186 189 190 193 195 196 199 201 206 212 214 221 225 227 237 238 241 248 254 265 283 294 302 
2 7 12 16 21 24 27 31 44 45 52 56 87 109 111 122 124 135 147 148 153 154 159 165 173 180 186 189 190 193 195 196 199 201 206 212 214 221 225 227 237 238 241 248 254 265 283 294 302 
3 8 19 20 48 73 102 121 218 258 266 282 288 289 
15 18 29 60 93 95 126 152 191 194 205 208 209 213 250 270 275 279 280 291 303 
10 15 22 88 90 93 126 160 161 211 213 215 222 280 291 308 
14 38 53 58 63 77 96 103 123 164 174 177 197 200 207 210 242 247 252 271 301 

14 36 50 53 58 63 66 67 77 96 103 123 164 174 177 197 200 207 210 242 247 252 271 295 297 301 
139 203 261 268 276 296 
25 41 85 119 138 144 169 176 216 233 253 
23 25 40 75 85 119 138 144 166 169 176 216 233 253 290 
6 13 17 47 62 76 85 105 110 120 129 137 138 141 144 145 151 155 157 168 192 202 226 264 267 
26 
2 7 12 16 21 24 27 31 32 45 52 56 87 109 111 122 124 135 147 148 153 154 159 165 173 180 186 189 190 193 195 196 199 201 206 212 214 221 225 227 237 238 241 248 254 265 283 294 302 
2 7 12 16 21 24 27 31 32 44 52 56 87 109 111 122 124 135 147 148 153 154 159 165 173 180 186 189 190 193 195 196 199 201 206 212 214 221 225 227 237 238 241 248 254 265 283 294 302 

6 13 17 23 42 62 75 76 85 89 98 105 110 119 120 129 137 138 141 144 145 151 155 157 168 192 202 226 235 243 253 262 263 264 267 284 287 
3 8 19 20 33 73 102 121 218 258 266 282 288 289 
29 65 118 128 134 175 188 208 270 275 
38 53 66 67 77 200 207 242 252 295 297 301 

2 7 12 16 21 24 27 31 32 44 45 56 87 109 111 122 124 135 147 148 153 154 159 165 173 180 186 189 190 193 195 196 199 201 206 212 214 221 225 227 237 238 241 248 254 265 283 294 302 
14 36 38 50 58 63 66 67 77 96 103 123 164 174 177 197 200 207 210 242 247 252 271 295 297 301 

94 277 
2 7 12 16 21 24 27 31 32 44 45 52 87 109 111 122 124 135 147 148 153 154 159 165 173 180 186 189 190 193 195 196 199 201 206 212 214 221 225 227 237 238 241 248 254 265 283 294 302 
64 69 70 81 92 107 114 149 170 171 219 255 259 260 281 
14 36 38 53 63 77 96 103 123 164 174 177 197 200 207 210 242 247 252 271 301 
178 
34 95 152 194 250 275 
17 23 72 85 98 99 100 119 127 138 140 144 157 176 181 187 202 204 226 253 262 263 264 277 286 
6 13 17 23 42 47 75 76 85 89 98 99 105 110 119 120 129 137 138 141 144 145 151 155 157 168 192 202 226 235 236 243 253 262 263 264 267 286 287 
14 36 38 53 58 77 96 103 123 164 174 177 197 200 207 210 242 247 252 271 301 
57 69 70 81 92 107 149 170 255 259 281 
29 49 118 128 134 175 188 208 250 270 275 
38 50 53 77 200 207 242 295 297 301 
38 50 53 77 200 207 242 301 

57 64 70 81 86 92 97 106 107 114 116 130 143 149 150 167 170 171 183 185 219 245 255 259 260 278 281 292 
57 64 69 81 92 107 114 149 170 171 219 255 259 260 281 292 
4 11 15 18 22 90 93 101 108 117 126 160 162 179 191 209 213 217 240 269 272 280 291 
17 23 61 85 99 100 119 127 138 140 141 144 181 187 204 226 264 277 
3 8 19 20 33 48 102 121 218 258 266 282 288 289 
82 
6 13 17 23 41 47 62 76 85 89 98 99 105 110 119 129 137 138 141 144 145 151 155 157 168 169 176 192 202 226 229 235 243 253 262 263 264 267 284 286 287 
6 13 17 23 42 47 62 75 85 89 98 99 105 110 119 120 129 137 138 141 144 145 151 155 157 168 176 192 202 226 235 236 243 253 262 263 264 267 284 286 287 
14 36 38 50 53 58 63 66 67 96 103 123 125 164 174 177 197 200 207 210 242 247 252 271 274 295 297 301 
224 304 
1 
156 158 176 
57 64 69 70 92 107 114 149 170 171 219 255 259 260 281 292 
74 273 
309 
23 25 166 216 228 290 
6 13 17 23 40 41 42 47 61 62 72 75 76 89 98 99 100 105 110 119 120 127 129 137 138 140 141 144 145 151 155 157 168 169 176 181 187 192 202 226 229 233 235 236 243 253 262 263 264 267 277 284 286 287 
69 97 106 107 114 116 130 150 171 183 198 219 260 278 
2 7 12 16 21 24 27 31 32 44 45 52 56 109 111 122 124 135 147 148 153 154 159 165 173 180 186 189 190 193 195 196 199 201 206 212 214 221 225 227 237 238 241 248 254 265 283 294 302 
10 15 22 35 90 93 126 160 161 209 211 215 222 280 291 308 
6 13 17 23 47 62 75 76 85 98 99 105 110 119 120 129 137 138 141 144 145 151 155 157 168 176 192 202 226 229 235 236 243 253 262 263 264 267 284 286 287 
4 11 15 18 22 35 71 88 93 95 101 108 117 126 152 160 161 162 179 191 209 213 217 240 269 272 280 291 
5 9 25 131 136 166 230 290 299 310 
57 64 69 70 81 107 114 149 150 170 219 255 259 260 281 
4 10 11 15 18 22 34 35 71 88 90 95 108 126 152 160 161 162 179 194 209 211 213 215 217 222 269 275 280 291 308 
55 277 
4 15 18 22 29 34 60 90 93 108 126 152 160 162 163 184 194 208 209 213 250 269 270 272 275 279 280 293 303 
14 36 38 53 58 63 77 103 123 164 174 177 197 200 207 210 242 247 252 271 301 
69 86 106 107 114 116 130 143 150 167 171 183 185 198 219 245 260 278 292 
6 13 17 23 47 61 62 75 76 85 89 99 105 110 119 129 137 138 140 141 144 151 155 157 168 176 187 192 202 226 229 235 236 243 253 262 263 264 267 284 286 287 
6 13 17 23 61 62 72 75 76 85 89 98 100 105 110 119 127 129 138 140 141 144 151 155 157 168 187 202 226 235 236 243 253 262 263 264 267 277 284 286 287 
17 23 61 72 85 99 119 127 138 140 144 157 176 181 187 202 204 226 263 264 277 
4 11 15 18 22 71 90 108 117 126 160 162 179 191 209 213 217 240 269 272 280 291 
3 8 19 20 33 48 73 121 218 258 266 282 288 289 
14 36 38 53 58 63 77 96 123 164 174 177 197 200 207 210 242 247 252 271 301 
115 220 246 312 
6 13 17 23 42 47 62 75 76 85 89 98 99 110 119 120 129 137 138 141 144 145 151 155 157 168 192 202 226 229 235 236 253 262 263 264 267 286 287 
69 86 97 107 114 130 143 150 167 171 183 185 219 245 260 278 292 
57 64 69 70 81 86 92 97 106 114 116 130 143 149 150 167 170 171 183 185 219 245 255 259 260 278 281 292 
4 11 15 18 22 71 90 93 95 101 117 126 152 160 162 179 191 194 209 213 217 240 269 272 280 291 
2 7 12 16 21 24 27 31 32 44 45 52 56 87 111 122 124 135 147 148 153 154 159 165 173 180 186 189 190 193 195 196 199 201 206 212 214 221 225 227 237 238 241 248 254 265 283 294 302 
6 13 17 23 42 47 62 75 76 85 89 98 99 105 119 120 129 137 138 141 144 145 151 155 157 168 192 202 226 235 243 253 262 263 264 267 287 
2 7 12 16 21 24 27 31 32 44 45 52 56 87 109 122 124 135 147 148 153 154 159 165 173 180 186 189 190 193 195 196 199 201 206 212 214 221 225 227 237 238 241 248 254 265 283 294 302 


57 69 70 81 86 92 97 106 107 116 130 143 149 150 167 171 183 185 219 245 255 259 260 278 281 292 
104 220 246 312 
69 86 97 107 114 150 183 198 260 278 
4 11 18 22 71 90 101 108 126 160 162 179 191 209 213 217 240 269 272 275 280 291 
49 65 128 134 175 188 275 279 
6 13 17 23 40 41 47 61 62 72 75 76 85 89 98 99 100 105 110 120 127 129 137 138 140 141 144 145 151 155 157 158 168 169 176 181 187 192 202 216 226 229 235 236 243 253 262 263 264 267 277 284 286 287 
6 13 17 42 47 62 76 85 89 105 110 119 129 137 138 141 144 145 151 155 157 168 192 202 226 253 264 267 
3 8 19 20 33 48 73 102 218 258 266 282 288 289 
2 7 12 16 21 24 27 31 32 44 45 52 56 87 109 111 124 135 147 148 153 154 159 165 173 180 186 189 190 193 195 196 199 201 206 212 214 221 225 227 237 238 241 248 254 265 283 294 302 
14 36 38 53 58 63 77 96 103 164 174 177 197 200 207 210 242 247 252 271 301 
2 7 12 16 21 24 27 31 32 44 45 52 56 87 109 111 122 135 147 148 153 154 159 165 173 180 186 189 190 193 195 196 199 201 206 212 214 221 225 227 237 238 241 248 254 265 283 294 302 
77 200 207 274 
4 10 11 15 18 22 34 35 71 88 90 93 95 101 108 117 160 161 162 179 191 209 211 213 215 217 222 240 269 272 280 291 308 
17 23 61 72 85 99 100 119 138 140 144 176 181 187 202 204 226 262 263 264 277 
49 65 118 134 175 188 
6 13 17 23 42 47 62 75 76 85 89 98 99 105 110 119 120 137 138 141 144 145 151 155 157 168 192 202 226 235 236 243 253 262 263 264 267 286 287 
69 86 97 106 107 114 143 150 167 171 183 185 219 245 260 278 292 
5 9 25 91 166 216 230 290 299 310 

273 
49 65 118 128 175 188 
2 7 12 16 21 24 27 31 32 44 45 52 56 87 109 111 122 124 147 148 153 154 159 165 173 180 186 189 190 193 195 196 199 201 206 212 214 221 225 227 237 238 241 248 254 265 283 294 302 
25 91 166 290 299 
6 13 17 23 42 47 62 75 76 85 89 98 105 110 119 120 129 138 141 144 145 151 155 157 168 192 202 226 235 243 253 264 267 286 287 
6 13 17 23 40 41 42 47 61 62 72 75 76 85 89 98 99 100 105 110 119 120 127 129 137 140 141 144 145 151 155 157 168 169 176 181 187 192 202 226 229 233 235 236 243 253 262 263 264 267 277 284 286 287 
39 203 261 268 276 296 
17 23 61 72 85 98 99 100 119 127 138 144 157 176 181 187 202 204 226 253 262 263 264 277 286 
6 13 17 23 42 47 62 72 75 76 85 89 98 99 105 110 119 120 129 137 138 144 145 151 155 157 168 176 181 192 202 226 229 235 236 243 253 262 263 264 267 277 286 287 
244 249 
69 97 106 107 114 130 150 167 171 185 219 260 292 
6 13 17 23 40 41 42 47 61 62 72 75 76 85 89 98 99 100 105 110 119 120 127 129 137 138 140 141 145 151 155 157 168 169 176 181 192 202 226 229 235 236 243 253 262 263 264 267 277 284 286 287 
6 13 17 42 47 62 75 76 85 89 105 110 119 120 129 137 138 141 144 151 155 157 168 192 202 226 235 253 264 267 287 
156 158 176 
2 7 12 16 21 24 27 31 32 44 45 52 56 87 109 111 122 124 135 148 153 154 159 165 173 180 186 189 190 193 195 196 199 201 206 212 214 221 225 227 237 238 241 248 254 265 283 294 302 
2 7 12 16 21 24 27 31 32 44 45 52 56 87 109 111 122 124 135 147 153 154 159 165 173 180 186 189 190 193 195 196 199 201 206 212 214 221 225 227 237 238 241 248 254 265 283 294 302 
57 64 69 70 81 92 107 114 170 171 219 255 259 260 281 292 
69 86 92 97 106 107 114 116 130 143 167 171 183 185 219 245 255 260 278 292 
6 13 17 23 42 47 62 75 76 85 89 98 99 105 110 119 120 129 137 138 141 144 145 155 157 168 192 202 226 235 236 243 253 262 263 264 267 286 287 
18 22 28 29 34 60 90 93 95 108 163 175 184 194 205 208 209 213 250 270 275 279 293 303 
2 7 12 16 21 24 27 31 32 44 45 52 56 87 109 111 122 124 135 147 148 154 159 165 173 180 186 189 190 193 195 196 199 201 206 212 214 221 225 227 237 238 241 248 254 265 283 294 302 
2 7 12 16 21 24 27 31 32 44 45 52 56 87 109 111 122 124 135 147 148 153 159 165 173 180 186 189 190 193 195 196 199 201 206 212 214 221 225 227 237 238 241 248 254 265 283 294 302 
6 13 17 23 42 47 62 75 76 85 89 98 99 105 110 119 120 129 137 138 141 144 145 151 157 168 176 192 202 226 229 235 236 243 253 262 263 264 267 286 287 
80 146 158 176 
6 13 17 23 42 47 61 62 75 76 85 89 98 99 100 105 110 119 120 129 137 138 140 141 144 145 151 155 168 176 192 202 226 229 235 243 253 262 263 264 267 277 286 287 
80 119 146 156 176 
2 7 12 16 21 24 27 31 32 44 45 52 56 87 109 111 122 124 135 147 148 153 154 165 173 180 186 189 190 193 195 196 199 201 206 212 214 221 225 227 237 238 241 248 254 265 283 294 302 
4 10 11 15 18 22 35 71 88 90 93 95 101 108 117 126 161 162 179 191 194 209 211 213 215 217 222 269 272 280 291 308 
10 15 22 35 88 90 93 126 160 211 215 222 280 291 308 
4 11 15 18 22 71 90 93 95 101 108 117 126 160 179 191 209 213 217 240 269 272 280 291 
95 152 184 194 250 275 
14 36 38 53 58 63 77 96 103 123 174 177 197 200 207 210 242 247 252 271 301 
2 7 12 16 21 24 27 31 32 44 45 52 56 87 109 111 122 124 135 147 148 153 154 159 173 180 186 189 190 193 195 196 199 201 206 212 214 221 225 227 237 238 241 248 254 265 283 294 302 
5 9 23 25 41 84 91 131 136 169 176 216 230 290 299 310 
69 97 106 107 114 130 143 150 171 183 185 219 245 260 278 292 
6 13 17 23 42 47 62 75 76 85 89 98 99 105 110 119 120 129 137 138 141 144 145 151 155 157 176 192 202 226 229 235 236 243 253 262 263 264 267 286 287 
23 25 40 41 75 85 119 138 144 166 176 216 233 253 290 
57 64 69 70 81 92 107 149 171 219 255 259 281 
57 69 70 81 86 97 106 107 114 130 143 149 150 167 170 183 185 219 245 255 259 260 278 281 292 

2 7 12 16 21 24 27 31 32 44 45 52 56 87 109 111 122 124 135 147 148 153 154 159 165 180 186 189 190 193 195 196 199 201 206 212 214 221 225 227 237 238 241 248 254 265 283 294 302 
14 36 38 53 58 63 77 96 103 123 164 177 197 200 207 210 242 247 252 271 301 
49 65 118 128 134 152 188 
6 13 17 23 25 40 41 61 75 76 80 85 89 98 100 119 127 138 140 141 144 146 155 156 157 158 166 168 169 202 216 226 233 236 253 262 263 264 277 286 287 290 
14 36 38 53 58 63 77 96 103 123 164 174 197 200 207 210 242 247 252 271 301 
59 
4 11 15 18 22 71 90 93 101 108 117 126 160 162 191 209 213 217 240 269 272 280 291 
2 7 12 16 21 24 27 31 32 44 45 52 56 87 109 111 122 124 135 147 148 153 154 159 165 173 186 189 190 193 195 196 199 201 206 212 214 221 225 227 237 238 241 248 254 265 283 294 302 
17 23 61 72 85 100 119 127 138 140 141 144 187 204 226 264 277 

69 86 97 106 107 114 116 130 150 167 171 198 219 245 260 278 292 
95 152 163 194 250 275 293 
69 97 106 107 114 130 143 150 167 171 219 245 260 278 292 
2 7 12 16 21 24 27 31 32 44 45 52 56 87 109 111 122 124 135 147 148 153 154 159 165 173 180 189 190 193 195 196 199 201 206 212 214 221 225 227 237 238 241 248 254 265 283 294 302 
17 23 61 72 85 98 99 100 119 127 138 140 181 204 226 253 262 263 264 277 286 
49 65 118 128 134 175 194 275 
2 7 12 16 21 24 27 31 32 44 45 52 56 87 109 111 122 124 135 147 148 153 154 159 165 173 180 186 190 193 195 196 199 201 206 212 214 221 225 227 237 238 241 248 254 265 283 294 302 
2 7 12 16 21 24 27 31 32 44 45 52 56 87 109 111 122 124 135 147 148 153 154 159 165 173 180 186 189 193 195 196 199 201 206 212 214 221 225 227 237 238 241 248 254 265 283 294 302 
4 11 15 18 22 34 71 90 101 108 117 126 160 162 179 209 213 217 240 269 272 280 
6 13 17 23 42 47 62 75 76 85 89 98 105 110 119 120 129 137 138 141 144 145 151 155 157 168 202 226 229 236 243 253 262 263 264 267 286 287 
2 7 12 16 21 24 27 31 32 44 45 52 56 87 109 111 122 124 135 147 148 153 154 159 165 173 180 186 189 190 195 196 199 201 206 212 214 221 225 227 237 238 241 248 254 265 283 294 302 
15 22 29 34 60 93 95 108 152 160 163 184 188 208 209 250 270 275 279 291 293 303 
2 7 12 16 21 24 27 31 32 44 45 52 56 87 109 111 122 124 135 147 148 153 154 159 165 173 180 186 189 190 193 196 199 201 206 212 214 221 225 227 237 238 241 248 254 265 283 294 302 
2 7 12 16 21 24 27 31 32 44 45 52 56 87 109 111 122 124 135 147 148 153 154 159 165 173 180 186 189 190 193 195 199 201 206 212 214 221 225 227 237 238 241 248 254 265 283 294 302 
14 36 38 53 58 63 77 96 103 123 164 174 177 200 207 210 242 247 252 271 301 
86 97 116 183 278 292 
2 7 12 16 21 24 27 31 32 44 45 52 56 87 109 111 122 124 135 147 148 153 154 159 165 173 180 186 189 190 193 195 196 201 206 212 214 221 225 227 237 238 241 248 254 265 283 294 302 
14 36 38 50 53 58 63 66 67 77 96 103 123 125 164 174 177 197 207 210 242 247 252 271 274 295 297 301 
2 7 12 16 21 24 27 31 32 44 45 52 56 87 109 111 122 124 135 147 148 153 154 159 165 173 180 186 189 190 193 195 196 199 206 212 214 221 225 227 237 238 241 248 254 265 283 294 302 
6 13 17 23 42 47 61 62 75 76 85 89 98 99 100 105 110 119 120 127 129 137 138 140 141 144 145 151 155 157 168 176 192 226 229 233 235 236 243 253 262 263 264 267 277 286 287 
39 139 261 268 276 296 
23 61 72 100 127 140 181 187 277 
34 152 279 
2 7 12 16 21 24 27 31 32 44 45 52 56 87 109 111 122 124 135 147 148 153 154 159 165 173 180 186 189 190 193 195 196 199 201 212 214 221 225 227 237 238 241 248 254 265 283 294 302 
14 36 38 50 53 58 63 66 67 77 96 103 123 125 164 174 177 197 200 210 242 247 252 271 274 295 297 301 
29 34 49 65 95 152 194 250 270 275 279 303 
4 11 15 18 22 34 71 88 90 93 95 101 108 117 126 152 160 162 179 191 194 213 217 240 269 272 280 291 
14 36 38 53 58 63 77 96 103 123 164 174 177 197 200 207 242 247 252 271 301 
4 10 15 22 35 88 93 126 160 161 215 222 280 291 308 
2 7 12 16 21 24 27 31 32 44 45 52 56 87 109 111 122 124 135 147 148 153 154 159 165 173 180 186 189 190 193 195 196 199 201 206 214 221 225 227 237 238 241 248 254 265 283 294 302 
4 11 15 18 22 34 35 71 90 93 95 101 108 117 126 152 160 162 179 191 209 217 240 269 272 275 280 291 
2 7 12 16 21 24 27 31 32 44 45 52 56 87 109 111 122 124 135 147 148 153 154 159 165 173 180 186 189 190 193 195 196 199 201 206 212 221 225 227 237 238 241 248 254 265 283 294 302 
4 10 15 22 35 88 93 126 160 161 211 222 280 291 308 
5 9 23 25 40 41 84 119 131 166 169 176 228 230 233 290 
4 11 15 18 22 71 90 93 101 108 117 126 160 162 179 191 209 213 240 269 272 275 280 291 
3 8 19 20 33 48 73 102 121 258 266 282 288 289 
57 69 70 81 86 92 97 106 107 114 130 143 149 150 167 170 171 183 185 245 255 259 260 278 281 292 
104 115 246 312 
2 7 12 16 21 24 27 31 32 44 45 52 56 87 109 111 122 124 135 147 148 153 154 159 165 173 180 186 189 190 193 195 196 199 201 206 212 214 225 227 237 238 241 248 254 265 283 294 302 
10 15 35 88 93 126 160 161 211 215 280 291 308 
234 
78 304 
2 7 12 16 21 24 27 31 32 44 45 52 56 87 109 111 122 124 135 147 148 153 154 159 165 173 180 186 189 190 193 195 196 199 201 206 212 214 221 227 237 238 241 248 254 265 283 294 302 
6 13 17 23 42 47 61 62 72 75 76 85 89 98 99 100 105 110 119 120 127 129 137 138 140 141 144 145 151 155 157 168 176 181 187 192 202 229 233 235 236 243 253 262 263 264 267 277 286 287 
2 7 12 16 21 24 27 31 32 44 45 52 56 87 109 111 122 124 135 147 148 153 154 159 165 173 180 186 189 190 193 195 196 199 201 206 212 214 221 225 237 238 241 248 254 265 283 294 302 
84 216 
6 17 75 85 89 98 105 119 138 141 144 155 157 168 192 202 226 235 236 253 262 263 264 267 286 287 
5 9 25 91 131 166 216 290 299 310 

285 
40 41 85 138 169 176 202 216 226 264 
223 
6 13 17 23 47 62 75 76 85 89 98 99 105 110 119 129 137 138 141 144 145 151 155 157 168 202 226 229 236 243 253 262 263 264 267 284 286 287 
6 13 17 62 76 85 89 98 99 105 119 129 138 141 144 151 155 168 176 192 202 226 229 235 243 253 262 263 264 267 286 287 
2 7 12 16 21 24 27 31 32 44 45 52 56 87 109 111 122 124 135 147 148 153 154 159 165 173 180 186 189 190 193 195 196 199 201 206 212 214 221 225 227 238 241 248 254 265 283 294 302 
2 7 12 16 21 24 27 31 32 44 45 52 56 87 109 111 122 124 135 147 148 153 154 159 165 173 180 186 189 190 193 195 196 199 201 206 212 214 221 225 227 237 241 248 254 265 283 294 302 
257 
4 11 15 18 22 71 90 101 108 117 126 162 179 191 209 213 217 269 272 280 
2 7 12 16 21 24 27 31 32 44 45 52 56 87 109 111 122 124 135 147 148 153 154 159 165 173 180 186 189 190 193 195 196 199 201 206 212 214 221 225 227 237 238 248 254 265 283 294 302 
14 36 38 50 53 58 63 66 67 77 96 103 123 164 174 177 197 200 207 210 247 252 271 295 297 301 
6 13 17 23 47 62 75 76 85 89 98 99 110 119 129 137 138 141 144 151 155 157 168 192 202 226 235 236 253 262 263 264 286 287 
142 249 
69 97 106 107 114 130 150 167 171 183 185 219 260 278 292 
104 115 220 312 
14 36 38 53 58 63 77 96 103 123 164 174 177 197 200 207 210 242 252 271 301 
2 7 12 16 21 24 27 31 32 44 45 52 56 87 109 111 122 124 135 147 148 153 154 159 165 173 180 186 189 190 193 195 196 199 201 206 212 214 221 225 227 237 238 241 254 265 283 294 302 
142 244 
29 34 60 65 95 152 163 184 194 208 270 275 279 293 303 

14 36 38 50 53 58 63 77 96 103 123 164 174 177 197 200 207 210 242 247 271 301 
6 13 17 23 40 41 47 61 62 75 76 85 89 98 99 105 110 119 120 129 137 138 140 141 144 145 151 155 157 168 169 176 187 192 202 226 229 235 236 243 262 263 264 267 284 286 287 
2 7 12 16 21 24 27 31 32 44 45 52 56 87 109 111 122 124 135 147 148 153 154 159 165 173 180 186 189 190 193 195 196 199 201 206 212 214 221 225 227 237 238 241 248 265 283 294 302 
57 64 69 70 81 92 107 114 149 150 170 171 219 259 260 281 292 
23 
239 
3 8 19 20 33 48 73 102 121 218 266 282 288 289 
57 64 69 70 81 92 107 114 149 170 171 219 255 260 281 292 
57 69 70 81 86 92 97 106 107 114 116 130 143 149 150 167 171 183 185 219 245 255 259 278 281 292 
39 139 203 268 276 296 
6 13 17 23 47 61 62 75 76 85 89 98 99 105 110 119 127 129 138 140 141 144 151 155 157 168 176 187 192 202 226 229 235 236 243 253 263 264 267 286 287 
6 13 17 23 47 61 62 75 76 85 89 98 99 100 105 110 119 127 129 138 140 141 144 151 155 157 168 176 187 192 202 226 229 235 236 243 253 262 264 267 286 287 
6 13 17 23 42 47 61 62 72 75 76 85 89 98 99 100 105 110 119 120 127 129 137 138 140 141 144 145 151 155 157 168 176 181 187 192 202 226 229 233 235 236 243 253 262 263 267 277 284 286 287 
2 7 12 16 21 24 27 31 32 44 45 52 56 87 109 111 122 124 135 147 148 153 154 159 165 173 180 186 189 190 193 195 196 199 201 206 212 214 221 225 227 237 238 241 248 254 283 294 302 
3 8 19 20 33 48 73 102 121 218 258 282 288 289 
6 13 17 23 42 47 62 75 76 85 89 98 99 105 110 119 120 129 137 138 141 144 145 151 155 157 168 192 202 226 229 235 236 253 262 263 264 286 287 
39 139 203 261 276 296 
4 11 15 18 22 71 90 93 95 101 108 117 126 160 162 179 191 209 213 217 240 272 280 291 
29 34 49 65 95 152 194 208 250 275 279 303 
14 36 38 53 58 63 77 96 103 123 164 174 177 197 200 207 210 242 247 252 274 301 
4 11 15 18 22 71 90 95 101 108 117 126 160 162 179 191 209 213 217 240 269 280 291 
82 133 
77 125 200 207 271 301 
18 29 34 49 60 65 93 95 117 118 152 163 184 188 194 208 213 217 250 270 279 293 303 
39 139 203 261 268 296 
17 23 55 61 72 85 94 99 100 119 127 138 140 141 144 157 176 181 187 202 204 226 264 
69 86 97 106 107 114 116 130 150 167 171 183 185 198 219 245 260 292 
18 29 34 95 118 152 194 205 208 250 270 275 303 
4 10 11 15 18 22 34 35 71 88 90 93 95 101 108 117 126 160 161 162 179 191 209 211 213 215 217 222 240 269 272 291 308 
57 64 69 70 81 92 107 114 149 170 171 219 255 259 260 292 
3 8 19 20 33 48 73 102 121 218 258 266 288 289 
2 7 12 16 21 24 27 31 32 44 45 52 56 87 109 111 122 124 135 147 148 153 154 159 165 173 180 186 189 190 193 195 196 199 201 206 212 214 221 225 227 237 238 241 248 254 265 294 302 
6 17 47 75 76 85 89 98 99 119 138 144 235 253 264 286 287 
232 
6 13 17 23 61 62 75 76 85 89 98 99 105 119 129 137 138 140 141 144 151 155 157 168 176 187 192 202 226 229 235 236 243 253 262 263 264 267 284 287 
6 13 17 23 47 62 75 76 85 89 98 99 105 110 119 129 137 138 141 144 145 151 155 157 168 176 192 202 226 229 235 236 243 253 262 263 264 267 284 286 
3 8 19 20 33 48 73 102 121 218 258 266 282 289 
3 8 19 20 33 48 73 102 121 218 258 266 282 288 
5 9 23 25 41 84 91 131 136 166 169 176 216 230 299 310 
4 10 11 15 18 22 34 35 71 88 90 93 101 108 117 126 160 161 162 179 194 209 211 213 215 217 222 269 272 280 308 
69 70 81 97 106 107 114 130 143 149 150 167 171 183 185 198 219 245 255 259 260 278 281 
95 152 184 194 250 275 
2 7 12 16 21 24 27 31 32 44 45 52 56 87 109 111 122 124 135 147 148 153 154 159 165 173 180 186 189 190 193 195 196 199 201 206 212 214 221 225 227 237 238 241 248 254 265 283 302 
38 50 53 66 77 200 207 242 297 301 
39 139 203 261 268 276 
38 50 53 66 77 200 207 242 295 301 

5 9 25 91 131 136 166 230 290 310 

14 36 38 50 53 58 63 66 67 77 96 103 123 164 174 177 197 200 207 210 242 247 252 271 274 295 297 
2 7 12 16 21 24 27 31 32 44 45 52 56 87 109 111 122 124 135 147 148 153 154 159 165 173 180 186 189 190 193 195 196 199 201 206 212 214 221 225 227 237 238 241 248 254 265 283 294 
29 34 95 152 194 208 250 270 275 279 
78 224 



10 15 18 35 88 93 126 160 161 211 215 222 280 291 
83 
5 9 25 91 131 166 230 290 299 

104 115 220 246 

